(declare-datatypes () ((Lst (cons (head Int) (tail Lst)) (nil))))
(declare-datatypes () ((Tree (node (data Int) (left Tree) (right Tree)) (leaf))))
(declare-datatypes () ((Pair (mkpair (first Int) (second Int)))
                       (ZLst (zcons (zhead Pair) (ztail ZLst)) (znil))))
(declare-fun P (Int) Bool)
(declare-fun f (Int) Int)
(declare-fun less (Int Int) Bool)
(declare-fun plus (Int Int) Int)
(declare-fun minus (Int Int) Int)
(declare-fun mult (Int Int) Int)
(declare-fun nmax (Int Int) Int)
(declare-fun nmin (Int Int) Int)
(declare-fun append (Lst Lst) Lst)
(declare-fun len (Lst) Int)
(declare-fun drop (Int Lst) Lst)
(declare-fun take (Int Lst) Lst)
(declare-fun count (Int Lst) Int)
(declare-fun last (Lst) Int)
(declare-fun butlast (Lst) Lst)
(declare-fun mem (Int Lst) Bool)
(declare-fun delete (Int Lst) Lst)
(declare-fun rev (Lst) Lst)
(declare-fun lmap (Lst) Lst)
(declare-fun filter (Lst) Lst)
(declare-fun dropWhile (Lst) Lst)
(declare-fun takeWhile (Lst) Lst)
(declare-fun ins1 (Int Lst) Lst)
(declare-fun insort (Int Lst) Lst)
(declare-fun sorted (Lst) Bool)
(declare-fun sort (Lst) Lst)
(declare-fun zip (Lst Lst) ZLst)
(declare-fun zappend (ZLst ZLst) ZLst)
(declare-fun zdrop (Int ZLst) ZLst)
(declare-fun ztake (Int ZLst) ZLst)
(declare-fun zrev (ZLst) ZLst)
(declare-fun mirror (Tree) Tree)
(declare-fun height (Tree) Int)
(define-fun leq ((x Int) (y Int)) Bool (or (= x y) (less x y)))
(assert (forall ((x Lst)) (= (append nil x) x)))
(assert (forall ((x Int) (y Lst) (z Lst)) (= (append (cons x y) z) (cons x (append y z)))))
(assert (= (len nil) 0))
(assert (forall ((x Int) (y Lst)) (= (len (cons x y)) (+ 1 (len y)))))
(assert (forall ((x Lst)) (>= (len x) 0)))
(assert (= (rev nil) nil))
(assert (forall ((x Int) (y Lst)) (= (rev (cons x y)) (append (rev y) (cons x nil)))))
(assert (forall ((x Lst)) (= (zip nil x) znil)))
(assert (forall ((x Lst)) (= (zip x nil) znil)))
(assert (forall ((x Int) (y Lst) (z Int) (w Lst)) (= (zip (cons x y) (cons z w)) (zcons (mkpair x z) (zip y w)))))
(assert (forall ((x ZLst)) (= (zappend znil x) x)))
(assert (forall ((x Pair) (y ZLst) (z ZLst)) (= (zappend (zcons x y) z) (zcons x (zappend y z)))))
(assert (= (zrev znil) znil))
(assert (forall ((x Pair) (y ZLst)) (= (zrev (zcons x y)) (zappend (zrev y) (zcons x znil)))))
(assert (not 
(forall ((xs Lst) (ys Lst)) (=> (= (len xs) (len ys)) (= (zip (rev xs) (rev ys)) (zrev (zip xs ys))))) ; G87 
))
(check-sat)
